************************************************************************
file with basedata            : md174_.bas
initial value random generator: 2670
************************************************************************
projects                      :  1
jobs (incl. supersource/sink ):  16
horizon                       :  108
RESOURCES
  - renewable                 :  2   R
  - nonrenewable              :  2   N
  - doubly constrained        :  0   D
************************************************************************
PROJECT INFORMATION:
pronr.  #jobs rel.date duedate tardcost  MPM-Time
    1     14      0       20        6       20
************************************************************************
PRECEDENCE RELATIONS:
jobnr.    #modes  #successors   successors
   1        1          3           2   3   4
   2        3          2           5   8
   3        3          2           5   8
   4        3          3           6   9  15
   5        3          3           6   7   9
   6        3          2          12  14
   7        3          2          11  15
   8        3          3          11  12  15
   9        3          2          10  12
  10        3          1          11
  11        3          2          13  14
  12        3          1          13
  13        3          1          16
  14        3          1          16
  15        3          1          16
  16        1          0        
************************************************************************
REQUESTS/DURATIONS:
jobnr. mode duration  R 1  R 2  N 1  N 2
------------------------------------------------------------------------
  1      1     0       0    0    0    0
  2      1     6       5    8    9    5
         2     7       5    7    9    4
         3     8       3    7    9    3
  3      1     4       6    4    4    8
         2     7       5    3    4    6
         3     9       4    3    3    3
  4      1     3       8   10   10    9
         2     6       8   10   10    8
         3    10       8   10    9    6
  5      1     5      10    4    9    5
         2     7       7    2    4    4
         3     7       9    1    5    2
  6      1     3       4   10    7    6
         2     3       3   10   10    6
         3     9       2    9    6    6
  7      1     2       8    9    8    2
         2     8       5    6    6    1
         3    10       4    4    4    1
  8      1     1       9    3    9    7
         2     8       5    3    7    6
         3     8       6    3    6    7
  9      1     2       8   10    8    6
         2     4       6   10    7    6
         3     7       1   10    7    3
 10      1     5       7    5   10    7
         2     5       8    5    8    8
         3     6       6    4    5    7
 11      1     1       5    8    5    7
         2     5       3    7    4    4
         3     6       3    7    2    4
 12      1     2       8    7    9    6
         2     2       8    7   10    5
         3     3       8    3    8    1
 13      1     1       9    6    8    8
         2     6       8    4    7    5
         3     9       8    3    7    5
 14      1     1       9    6    1    8
         2     6       9    5    1    6
         3     8       7    5    1    6
 15      1     1       8    9    7    5
         2     5       6    7    7    5
         3     8       1    6    6    5
 16      1     0       0    0    0    0
************************************************************************
RESOURCEAVAILABILITIES:
  R 1  R 2  N 1  N 2
   14   20   93   74
************************************************************************
